<number of tasks>
100

<cycle time>
1000

<order strength>
0.9


<task times>
1 98
2 191
3 364
4 67
5 96
6 91
7 68
8 33
9 260
10 297
11 25
12 113
13 573
14 115
15 188
16 126
17 281
18 44
19 177
20 24
21 86
22 122
23 291
24 46
25 83
26 130
27 225
28 349
29 113
30 142
31 117
32 155
33 105
34 62
35 516
36 38
37 307
38 196
39 306
40 99
41 28
42 481
43 171
44 241
45 60
46 283
47 481
48 56
49 568
50 56
51 283
52 279
53 586
54 198
55 199
56 499
57 147
58 454
59 250
60 44
61 212
62 156
63 74
64 545
65 209
66 558
67 69
68 99
69 269
70 49
71 308
72 154
73 576
74 428
75 191
76 229
77 123
78 63
79 553
80 382
81 116
82 160
83 66
84 114
85 118
86 194
87 37
88 634
89 42
90 97
91 34
92 27
93 314
94 37
95 62
96 50
97 226
98 39
99 590
100 102

<precedence relations>
1,5
1,6
1,7
1,8
1,9
2,5
2,6
2,7
2,8
2,9
3,5
3,6
3,7
3,8
3,9
4,5
4,6
4,7
4,8
4,9
5,10
5,11
6,10
6,11
7,10
7,11
8,10
8,11
9,10
9,11
10,12
10,13
10,14
11,12
11,13
11,14
12,15
12,16
12,17
12,18
13,15
13,16
13,17
13,18
14,15
14,16
14,17
14,18
15,19
15,20
15,21
15,22
16,19
16,20
16,21
16,22
17,19
17,20
17,21
17,22
18,19
18,20
18,21
18,22
19,23
19,24
19,25
19,26
20,23
20,24
20,25
20,26
21,23
21,24
21,25
21,26
22,23
22,24
22,25
22,26
23,27
23,28
24,27
24,28
25,27
25,28
26,27
26,28
27,29
27,30
27,31
27,32
28,29
28,30
28,31
28,32
29,33
29,34
30,33
30,34
31,33
31,34
32,33
32,34
33,35
33,36
33,37
33,38
33,39
34,35
34,36
34,37
34,38
34,39
35,40
35,41
35,42
35,43
36,40
36,41
36,42
36,43
37,40
37,41
37,42
37,43
38,40
38,41
38,42
38,43
39,40
39,41
39,42
39,43
40,44
40,45
40,46
40,47
41,44
41,45
41,46
42,44
42,45
42,46
42,48
43,47
44,49
44,50
44,51
45,49
45,50
45,51
46,49
46,50
46,51
47,49
47,50
47,51
48,49
48,50
49,52
49,53
50,52
51,52
51,57
51,58
52,54
52,56
53,54
53,55
53,57
53,58
54,60
54,63
54,74
55,59
56,59
56,60
56,61
57,59
57,61
58,59
58,60
58,61
59,62
59,64
60,92
60,94
61,62
61,63
62,65
62,66
63,67
63,84
64,67
64,78
64,79
64,93
65,68
66,74
67,75
68,69
68,70
68,71
68,72
69,77
70,73
71,74
71,77
72,74
72,75
73,77
74,76
74,78
74,79
74,80
74,82
75,95
76,83
76,85
76,86
77,79
77,80
77,82
78,81
78,83
79,96
80,85
80,100
81,84
82,84
82,85
82,86
83,95
85,89
86,87
86,88
87,91
87,93
88,90
88,92
90,95
90,96
91,94
91,96
94,100
95,98
95,99
95,100
96,97

<end>
